Instance name : DPDPTWHF_R_bar-n100-1_fixed_limited_heter_fleet
Authors : 
Date : 
Reference 
Solution
Route 1 : 31 40 12 21 81 2 62 52 71 7 57 16 36 66 90 6 56 86 
Route 2 : 20 28 49 70 43 78 18 99 68 93 37 87 
Route 3 : 23 1 73 51 11 61 
Route 4 : 5 55 13 42 63 35 85 39 92 89 9 59 8 58 
Route 5 : 26 47 27 77 97 29 76 3 22 79 72 38 88 53 
Route 6 : 30 33 80 34 84 83 17 67 41 32 82 91 4 46 96 54 
Route 7 : 14 64 15 24 74 65 10 60 25 48 98 75 50 100 
